p tw 50 413
e 0 2
e 0 4
e 0 7
e 0 9
e 0 11
e 0 12
e 0 15
e 0 16
e 0 22
e 0 24
e 0 25
e 0 26
e 0 29
e 0 34
e 0 35
e 0 36
e 0 42
e 0 45
e 1 2
e 1 4
e 1 7
e 1 9
e 1 23
e 1 28
e 1 31
e 1 33
e 1 34
e 1 35
e 1 37
e 1 38
e 1 41
e 1 47
e 2 5
e 2 6
e 2 7
e 2 8
e 2 11
e 2 12
e 2 21
e 2 28
e 2 30
e 2 31
e 2 32
e 2 33
e 2 35
e 2 36
e 2 37
e 2 38
e 2 40
e 2 43
e 2 44
e 2 47
e 3 6
e 3 7
e 3 9
e 3 11
e 3 12
e 3 15
e 3 17
e 3 22
e 3 24
e 3 29
e 3 36
e 3 39
e 3 40
e 3 41
e 3 42
e 4 5
e 4 6
e 4 7
e 4 8
e 4 15
e 4 21
e 4 30
e 4 31
e 4 32
e 4 35
e 4 41
e 4 42
e 5 6
e 5 7
e 5 8
e 5 9
e 5 11
e 5 13
e 5 24
e 5 26
e 5 27
e 5 29
e 5 37
e 5 39
e 5 40
e 6 15
e 6 19
e 6 20
e 6 22
e 6 23
e 6 24
e 6 28
e 6 31
e 6 34
e 6 40
e 6 44
e 6 47
e 7 8
e 7 12
e 7 16
e 7 17
e 7 18
e 7 20
e 7 21
e 7 25
e 7 26
e 7 30
e 7 31
e 7 34
e 7 38
e 7 40
e 7 46
e 7 47
e 7 49
e 8 9
e 8 10
e 8 11
e 8 12
e 8 16
e 8 18
e 8 20
e 8 21
e 8 22
e 8 25
e 8 28
e 8 43
e 8 44
e 8 45
e 8 47
e 8 48
e 8 49
e 9 13
e 9 14
e 9 15
e 9 17
e 9 19
e 9 23
e 9 27
e 9 31
e 9 33
e 9 34
e 9 35
e 9 37
e 9 38
e 9 40
e 10 11
e 10 14
e 10 20
e 10 30
e 10 31
e 10 32
e 10 34
e 10 41
e 10 47
e 10 49
e 11 12
e 11 13
e 11 15
e 11 25
e 11 26
e 11 27
e 11 31
e 11 32
e 11 33
e 11 37
e 11 41
e 11 43
e 11 46
e 12 14
e 12 15
e 12 17
e 12 19
e 12 22
e 12 27
e 12 30
e 12 31
e 12 35
e 12 39
e 12 42
e 12 46
e 13 17
e 13 18
e 13 19
e 13 21
e 13 23
e 13 24
e 13 26
e 13 36
e 13 41
e 13 42
e 13 44
e 13 47
e 14 15
e 14 20
e 14 21
e 14 22
e 14 25
e 14 29
e 14 30
e 14 31
e 14 33
e 14 34
e 14 35
e 14 44
e 14 45
e 14 47
e 15 17
e 15 18
e 15 19
e 15 25
e 15 26
e 15 31
e 15 37
e 15 38
e 15 39
e 15 48
e 16 17
e 16 21
e 16 22
e 16 25
e 16 26
e 16 30
e 16 32
e 16 39
e 16 40
e 16 44
e 16 48
e 17 19
e 17 20
e 17 24
e 17 28
e 17 32
e 17 33
e 17 35
e 17 38
e 17 39
e 17 43
e 17 45
e 17 47
e 17 48
e 17 49
e 18 26
e 18 29
e 18 34
e 18 35
e 18 36
e 18 39
e 18 41
e 18 46
e 19 20
e 19 23
e 19 27
e 19 28
e 19 29
e 19 31
e 19 35
e 19 38
e 19 41
e 19 42
e 19 47
e 19 48
e 20 24
e 20 28
e 20 38
e 20 39
e 20 41
e 20 42
e 20 43
e 20 49
e 21 22
e 21 23
e 21 27
e 21 34
e 21 36
e 21 40
e 21 41
e 21 42
e 21 43
e 22 23
e 22 27
e 22 32
e 22 33
e 22 34
e 22 35
e 22 42
e 22 45
e 22 48
e 23 24
e 23 25
e 23 26
e 23 29
e 23 30
e 23 33
e 23 35
e 23 38
e 23 39
e 23 43
e 23 44
e 23 47
e 24 32
e 24 34
e 24 35
e 24 42
e 24 43
e 24 47
e 25 27
e 25 28
e 25 31
e 25 35
e 25 36
e 25 40
e 25 46
e 25 48
e 26 29
e 26 30
e 26 34
e 26 35
e 26 38
e 26 41
e 26 43
e 27 32
e 27 35
e 27 39
e 27 41
e 27 42
e 27 44
e 27 47
e 27 49
e 28 32
e 28 36
e 28 41
e 28 46
e 28 49
e 29 32
e 29 34
e 29 36
e 29 39
e 29 40
e 29 43
e 29 44
e 29 45
e 29 49
e 30 32
e 30 40
e 30 45
e 31 33
e 31 35
e 31 37
e 31 43
e 31 44
e 31 45
e 32 33
e 32 34
e 32 36
e 32 37
e 32 39
e 32 41
e 32 44
e 32 47
e 32 49
e 33 34
e 33 35
e 33 40
e 33 41
e 33 49
e 34 36
e 34 39
e 34 40
e 34 42
e 34 45
e 34 46
e 35 37
e 35 40
e 35 44
e 36 37
e 36 38
e 36 39
e 36 40
e 36 46
e 37 39
e 37 42
e 37 44
e 37 45
e 37 46
e 38 42
e 39 46
e 39 48
e 40 41
e 40 42
e 40 43
e 40 46
e 40 47
e 40 48
e 41 45
e 42 44
e 42 48
e 42 49
e 43 44
e 43 45
e 44 46
e 44 47
e 44 48
e 45 46
e 45 49
e 46 47
e 46 48
